RT is False
Default write of storage_offers_DA.csv just to have a file (but constraint should be inactive)
Reading model...
...model read.
creating competitive generators file...
...competitive generators recorded.
Loading data...
.. day-ahead data read.
Compiling instance...
...instance created.
Creating Offer Mitigation (model will solve as dispatch if TRUE)...
NOTE: storage offers will not be mitigated
...storage offer mitigation file created
Converting model to MPEC...
...converted
NOTE: initial MIP solve with only storage competitive to get feasible solution
Solving...

Welcome to IBM(R) ILOG(R) CPLEX(R) Interactive Optimizer 12.9.0.0
  with Simplex, Mixed Integer & Barrier Optimizers
5725-A06 5725-A29 5724-Y48 5724-Y49 5724-Y54 5724-Y55 5655-Y21
Copyright IBM Corp. 1988, 2019.  All Rights Reserved.

Type 'help' for a list of available commands.
Type 'help' followed by a command name for more
information on commands.

CPLEX> Logfile 'cplex.log' closed.
Logfile 'C:\Users\Luke\Desktop\test919\logs\tmpztmz9pn2.cplex.log' open.
CPLEX> New value for parallel optimization mode: -1
CPLEX> New value for mixed integer optimality gap tolerance: 0.01
CPLEX> New value for integrality tolerance: 1e-09
CPLEX> New value for feasibility tolerance: 0.01
CPLEX> New value for deterministic time limit in ticks: 75000
CPLEX> Problem 'C:\Users\Luke\Desktop\test919\logs\tmpsxdp5ie5.pyomo.lp' read.
Read time = 0.20 sec. (14.73 ticks)
CPLEX> Problem name         : C:\Users\Luke\Desktop\test919\logs\tmpsxdp5ie5.pyomo.lp
Objective sense      : Maximize
Variables            :   53805  [Nneg: 1,  Box: 22000,  Free: 4464,
                                 Binary: 27340]
Objective nonzeros   :    8988
Linear constraints   :  123205  [Less: 41346,  Greater: 59096,  Equal: 22763]
  Nonzeros           :  291712
  RHS nonzeros       :   67450

Variables            : Min LB: -5000.000        Max UB: 1000000.       
Objective nonzeros   : Min   : 0.6000000        Max   : 2500.000       
Linear constraints   :
  Nonzeros           : Min   : 0.6000000        Max   : 1000000.       
  RHS nonzeros       : Min   : 0.6000000        Max   : 1000000.       
CPLEX> CPXPARAM_Parallel                                -1
CPXPARAM_Simplex_Tolerances_Feasibility          0.01
CPXPARAM_DetTimeLimit                            75000
CPXPARAM_MIP_Tolerances_MIPGap                   0.01
CPXPARAM_MIP_Tolerances_Integrality              1.0000000000000001e-09
Tried aggregator 3 times.
MIP Presolve eliminated 88958 rows and 19256 columns.
MIP Presolve added 3331 rows and 0 columns.
MIP Presolve modified 24763 coefficients.
Aggregator did 12941 substitutions.
Reduced MIP has 24637 rows, 21026 columns, and 70326 nonzeros.
Reduced MIP has 8299 binaries, 0 generals, 0 SOSs, and 0 indicators.
Presolve time = 0.23 sec. (176.04 ticks)
Probing fixed 369 vars, tightened 2751 bounds.
Probing time = 1.38 sec. (859.85 ticks)
Tried aggregator 2 times.
MIP Presolve eliminated 833 rows and 740 columns.
MIP Presolve modified 2172 coefficients.
Aggregator did 42 substitutions.
Reduced MIP has 23762 rows, 20244 columns, and 67784 nonzeros.
Reduced MIP has 7930 binaries, 0 generals, 0 SOSs, and 0 indicators.
Presolve time = 0.11 sec. (71.03 ticks)
Probing time = 0.05 sec. (15.71 ticks)
Clique table members: 6279.
MIP emphasis: balance optimality and feasibility.
MIP search method: dynamic search.
Parallel mode: opportunistic, using up to 24 threads.
Root relaxation solution time = 0.41 sec. (517.71 ticks)

        Nodes                                         Cuts/
   Node  Left     Objective  IInf  Best Integer    Best Bound    ItCnt     Gap

      0     0     3861.5615   666                   3861.5615     6068         
*     0     0      integral     0     3861.5615     3861.5615     6068    0.00%
Elapsed time = 3.80 sec. (2850.78 ticks, tree = 0.01 MB, solutions = 1)

Root node processing (before b&c):
  Real time             =    3.83 sec. (2852.72 ticks)
Parallel b&c, 24 threads:
  Real time             =    0.00 sec. (0.00 ticks)
  Sync time (average)   =    0.00 sec.
  Wait time (average)   =    0.00 sec.
                          ------------
Total (root+branch&cut) =    3.83 sec. (2852.72 ticks)

Solution pool: 1 solution saved.

MIP - Integer optimal solution:  Objective =  3.8615615289e+03
Solution time =    3.83 sec.  Iterations = 6068  Nodes = 0
Deterministic time = 2852.87 ticks  (745.26 ticks/sec)

CPLEX> Incumbent solution written to file 'C:\Users\Luke\Desktop\test919\logs\tmp4pzvek2h.cplex.sol'.
CPLEX> NOTE: no warmstart specified for MIP iteration, default behavior is true
NOTE: resolving with all competitive generators using storage-only solution to warmstart
Solving...

Welcome to IBM(R) ILOG(R) CPLEX(R) Interactive Optimizer 12.9.0.0
  with Simplex, Mixed Integer & Barrier Optimizers
5725-A06 5725-A29 5724-Y48 5724-Y49 5724-Y54 5724-Y55 5655-Y21
Copyright IBM Corp. 1988, 2019.  All Rights Reserved.

Type 'help' for a list of available commands.
Type 'help' followed by a command name for more
information on commands.

CPLEX> Logfile 'cplex.log' closed.
Logfile 'C:\Users\Luke\Desktop\test919\logs\tmpiuu5pawm.cplex.log' open.
CPLEX> New value for parallel optimization mode: -1
CPLEX> New value for mixed integer optimality gap tolerance: 0.01
CPLEX> New value for integrality tolerance: 1e-09
CPLEX> New value for feasibility tolerance: 0.01
CPLEX> New value for deterministic time limit in ticks: 75000
CPLEX> Problem 'C:\Users\Luke\Desktop\test919\logs\tmpzonkrum1.pyomo.lp' read.
Read time = 0.20 sec. (14.75 ticks)
CPLEX> MIP start file 'C:\Users\Luke\Desktop\test919\logs\tmp5ei20nad.cplex.mst' read.
CPLEX> Problem name         : C:\Users\Luke\Desktop\test919\logs\tmpzonkrum1.pyomo.lp
Objective sense      : Maximize
Variables            :   54525  [Nneg: 1,  Box: 22720,  Free: 4464,
                                 Binary: 27340]
Objective nonzeros   :    9708
Linear constraints   :  123205  [Less: 41346,  Greater: 59096,  Equal: 22763]
  Nonzeros           :  291712
  RHS nonzeros       :   67450

Variables            : Min LB: -5000.000        Max UB: 1000000.       
Objective nonzeros   : Min   : 0.6000000        Max   : 2500.000       
Linear constraints   :
  Nonzeros           : Min   : 0.6000000        Max   : 1000000.       
  RHS nonzeros       : Min   : 0.6000000        Max   : 1000000.       
CPLEX> CPXPARAM_Parallel                                -1
CPXPARAM_Simplex_Tolerances_Feasibility          0.01
CPXPARAM_DetTimeLimit                            75000
CPXPARAM_MIP_Tolerances_MIPGap                   0.01
CPXPARAM_MIP_Tolerances_Integrality              1.0000000000000001e-09
Warning:  No solution found from 1 MIP starts.
Retaining values of one MIP start for possible repair.
Tried aggregator 3 times.
MIP Presolve eliminated 88958 rows and 19976 columns.
MIP Presolve added 3331 rows and 0 columns.
MIP Presolve modified 24763 coefficients.
Aggregator did 12941 substitutions.
Reduced MIP has 24637 rows, 21026 columns, and 70326 nonzeros.
Reduced MIP has 8299 binaries, 0 generals, 0 SOSs, and 0 indicators.
Presolve time = 0.25 sec. (176.41 ticks)
Probing fixed 369 vars, tightened 2751 bounds.
Probing time = 1.36 sec. (859.85 ticks)
Tried aggregator 2 times.
MIP Presolve eliminated 833 rows and 740 columns.
MIP Presolve modified 2172 coefficients.
Aggregator did 42 substitutions.
Reduced MIP has 23762 rows, 20244 columns, and 67784 nonzeros.
Reduced MIP has 7930 binaries, 0 generals, 0 SOSs, and 0 indicators.
Presolve time = 0.08 sec. (71.03 ticks)
Probing time = 0.02 sec. (15.71 ticks)
Clique table members: 6279.
MIP emphasis: balance optimality and feasibility.
MIP search method: dynamic search.
Parallel mode: opportunistic, using up to 24 threads.
Root relaxation solution time = 0.39 sec. (517.71 ticks)

        Nodes                                         Cuts/
   Node  Left     Objective  IInf  Best Integer    Best Bound    ItCnt     Gap

      0     0     3861.5615   666                   3861.5615     6068         
*     0     0      integral     0     3861.5615     3861.5615     6068    0.00%
Elapsed time = 3.92 sec. (2878.44 ticks, tree = 0.01 MB, solutions = 1)

Root node processing (before b&c):
  Real time             =    3.94 sec. (2880.40 ticks)
Parallel b&c, 24 threads:
  Real time             =    0.00 sec. (0.00 ticks)
  Sync time (average)   =    0.00 sec.
  Wait time (average)   =    0.00 sec.
                          ------------
Total (root+branch&cut) =    3.94 sec. (2880.40 ticks)

Solution pool: 1 solution saved.

MIP - Integer optimal solution:  Objective =  3.8615615289e+03
Solution time =    3.94 sec.  Iterations = 6068  Nodes = 0
Deterministic time = 2880.56 ticks  (731.66 ticks/sec)

CPLEX> Incumbent solution written to file 'C:\Users\Luke\Desktop\test919\logs\tmphmny6r27.cplex.sol'.
CPLEX> Exporting results... 
